\ This file has been generated by DOcplex
\ ENCODING=ISO-8859-1
\Problem name: dectiger problem

Minimize
 obj: V
Subject To
 c1: V + 345.546093750000 a1_u0_x0 + 401.593750000000 a1_u1_x0
     + 346.593750000000 a1_u2_x0 + 325.110156250000 a1_u0_x1
     + 319.406250000000 a1_u1_x1 + 374.406250000000 a1_u2_x1 >= 0
 c2: V + 401.593750000000 a1_u0_x0 + 376.093750000000 a1_u1_x0
     + 401.093750000000 a1_u2_x0 + 319.406250000000 a1_u0_x1
     + 313.906250000000 a1_u1_x1 + 373.906250000000 a1_u2_x1 >= 0
 c3: V + 346.593750000000 a1_u0_x0 + 401.093750000000 a1_u1_x0
     + 341.093750000000 a1_u2_x0 + 374.406250000000 a1_u0_x1
     + 373.906250000000 a1_u1_x1 + 348.906250000000 a1_u2_x1 >= 0
 c4: a1_u0_x0 + a1_u1_x0 + a1_u2_x0 = 1
 c5: a1_u0_x1 + a1_u1_x1 + a1_u2_x1 = 1

Bounds
       V Free
End
